JulietBench/Juliet_Based_Patch_Bench/FFmpeg/CWE-369-Divide-By-Zero/CVE_2018_14394_3a2d21bc5f97aa0161db3ae731fc2732be6108b8/Resultff_mov_write_packet_patch1NEQ.smt2
; benchmark generated from python API
(set-info :status unknown)
(declare-fun R () (_ BitVec 32))
(declare-fun rdi () (_ BitVec 64))
(declare-fun rdx () (_ BitVec 64))
(declare-fun rcx () (_ BitVec 64))
(declare-fun rsi () (_ BitVec 64))
(assert
 (let (($x130061 (= (_ bv3131621040 32) R)))
 (let ((?x6 ((_ extract 31 0) rdi)))
 (let (($x15 (= (_ bv2 32) ?x6)))
 (let ((?x10 ((_ extract 31 0) rdx)))
 (let (($x139 (= (_ bv0 32) ?x10)))
 (let (($x130072 (and $x139 $x15 $x130061)))
 (let (($x129949 (= R ?x10)))
 (let (($x310 (and (distinct (_ bv0 32) ?x10) true)))
 (let (($x129890 (and $x310 $x15 $x129949)))
 (let (($x54 (= (_ bv105 32) ?x6)))
 (let (($x129914 (and $x139 $x54 $x130061)))
 (let (($x129870 (and $x310 $x54 $x129949)))
 (let (($x129915 (= (_ bv1 32) R)))
 (let (($x41 (and (distinct (_ bv2 32) ?x6) true)))
 (let (($x125 (and (distinct (_ bv105 32) ?x6) true)))
 (let (($x47 (= (_ bv0 64) rcx)))
 (let (($x129951 (and $x47 $x125 $x41 $x129915)))
 (let (($x48 (and (distinct (_ bv0 64) rcx) true)))
 (let ((?x144 ((_ extract 63 63) rcx)))
 (let ((?x222 (concat (concat (concat (concat (concat ?x144 ?x144) ?x144) ?x144) ?x144) ?x144)))
 (let ((?x227 (concat (concat (concat (concat (concat ?x222 ?x144) ?x144) ?x144) ?x144) ?x144)))
 (let ((?x232 (concat (concat (concat (concat (concat ?x227 ?x144) ?x144) ?x144) ?x144) ?x144)))
 (let ((?x237 (concat (concat (concat (concat (concat ?x232 ?x144) ?x144) ?x144) ?x144) ?x144)))
 (let ((?x242 (concat (concat (concat (concat (concat ?x237 ?x144) ?x144) ?x144) ?x144) ?x144)))
 (let ((?x247 (concat (concat (concat (concat (concat ?x242 ?x144) ?x144) ?x144) ?x144) ?x144)))
 (let ((?x252 (concat (concat (concat (concat (concat ?x247 ?x144) ?x144) ?x144) ?x144) ?x144)))
 (let ((?x257 (concat (concat (concat (concat (concat ?x252 ?x144) ?x144) ?x144) ?x144) ?x144)))
 (let ((?x262 (concat (concat (concat (concat (concat ?x257 ?x144) ?x144) ?x144) ?x144) ?x144)))
 (let ((?x267 (concat (concat (concat (concat (concat ?x262 ?x144) ?x144) ?x144) ?x144) ?x144)))
 (let ((?x272 (concat (concat (concat (concat (concat ?x267 ?x144) ?x144) ?x144) ?x144) ?x144)))
 (let ((?x277 (concat (concat (concat (concat (concat ?x272 ?x144) ?x144) ?x144) ?x144) ?x144)))
 (let ((?x281 (concat (concat (concat (concat ?x277 ?x144) ?x144) ?x144) rcx)))
 (let ((?x8 ((_ extract 31 0) rsi)))
 (let ((?x140 ((_ extract 31 31) rsi)))
 (let ((?x156 (concat (concat (concat (concat (concat ?x140 ?x140) ?x140) ?x140) ?x140) ?x140)))
 (let ((?x161 (concat (concat (concat (concat (concat ?x156 ?x140) ?x140) ?x140) ?x140) ?x140)))
 (let ((?x166 (concat (concat (concat (concat (concat ?x161 ?x140) ?x140) ?x140) ?x140) ?x140)))
 (let ((?x171 (concat (concat (concat (concat (concat ?x166 ?x140) ?x140) ?x140) ?x140) ?x140)))
 (let ((?x176 (concat (concat (concat (concat (concat ?x171 ?x140) ?x140) ?x140) ?x140) ?x140)))
 (let ((?x181 (concat (concat (concat (concat (concat ?x176 ?x140) ?x140) ?x140) ?x140) ?x140)))
 (let ((?x183 (concat (concat ?x181 ?x140) ?x8)))
 (let ((?x184 (bvashr ?x183 (_ bv63 64))))
 (let ((?x189 (concat (concat (concat (concat (concat ?x184 ?x140) ?x140) ?x140) ?x140) ?x140)))
 (let ((?x194 (concat (concat (concat (concat (concat ?x189 ?x140) ?x140) ?x140) ?x140) ?x140)))
 (let ((?x199 (concat (concat (concat (concat (concat ?x194 ?x140) ?x140) ?x140) ?x140) ?x140)))
 (let ((?x204 (concat (concat (concat (concat (concat ?x199 ?x140) ?x140) ?x140) ?x140) ?x140)))
 (let ((?x209 (concat (concat (concat (concat (concat ?x204 ?x140) ?x140) ?x140) ?x140) ?x140)))
 (let ((?x214 (concat (concat (concat (concat (concat ?x209 ?x140) ?x140) ?x140) ?x140) ?x140)))
 (let ((?x217 (concat (concat (concat ?x214 ?x140) ?x140) ?x8)))
 (let ((?x282 (bvsdiv ?x217 ?x281)))
 (let ((?x283 ((_ extract 31 0) ?x282)))
 (let (($x413 (= (_ bv0 32) ?x283)))
 (let (($x129874 (and $x413 $x48 $x125 $x41 $x130061)))
 (let (($x129887 (= R ?x283)))
 (let (($x129573 (and (distinct (_ bv0 32) ?x283) true)))
 (let (($x129932 (and $x129573 $x48 $x125 $x41 $x129887)))
 (let (($x129929 (or $x129932 $x129874 $x129951 $x129870 $x129914 $x129890 $x130072)))
 (let (($x129933 (not $x129929)))
 (let (($x129943 (and $x15 $x129949)))
 (let (($x130071 (and $x54 $x129949)))
 (let (($x129936 (and $x48 $x125 $x41 $x129887)))
 (let (($x130055 (or $x129936 $x129951 $x130071 $x129943)))
 (let (($x129912 (not $x130055)))
 (let (($x313 (and $x129912 $x129933)))
 (let (($x129889 (and $x130055 $x129929)))
 (let (($x129865 (or $x129889 $x313)))
 (not $x129865))))))))))))))))))))))))))))))))))))))))))))))))))))))))))))))))))))
(check-sat)
